(set-logic QF_BV)
(declare-fun x0 () (_ BitVec 64))
(declare-fun x1 () (_ BitVec 64))
(declare-fun x2 () (_ BitVec 32))
(declare-fun x3 () (_ BitVec 32))
(declare-fun x4 () (_ BitVec 64))
(declare-fun x5 () (_ BitVec 64))
(declare-fun x6 () (_ BitVec 32))
(assert (= x1 (_ bv0 64)))
(assert (= x3 (bvurem x2 x6)))
(assert (= x4 ((_ sign_extend 32) x3)))
(assert (= x5 x4))
(assert (= x0 (bvadd (_ bv0 64) x5)))
(assert (= (_ bv0 64) (bvadd x0 ((_ extract 63 0) (_ bv4 64)))))
(check-sat)
(exit)
